481123
22,53,26,58,1,59,66,10,69,42,19,51,41,48,50,24,102,57,31,4,72,84,13,43,78,91,44,28,27,62,20,29,6,101,33,15,67,94,52,88,14,73,86,56,64,36,3,95,46,45,11,60,82,5,55,97,98,17,9,47,7,96,79,38,21,75,49,18,85,99,35,100,61,89,68,87,76,83,25,2,104,70,39,63,37,54,71,74,105,103,77,106,65,90,30,81,80,12,92,32,8,23,93,34,40,16